Generated by cif2cell 1.2.10.  :  Wyckoff, R. W. G., Crystal Structures 1, 85-237 (1963).
 1.0
  3.580841839567897  -2.067400000000000   0.000000000000000
  0.000000000000000   4.134800000000000   0.000000000000000
  0.000000000000000   0.000000000000000   6.749000000000000
  Cd   S
   2   2
Cartesian
  1.193613946522632   2.067400000000000   0.000000000000000 
  2.387227893045265   0.000000000000000   3.374500000000000 
  1.193613946522632   2.067400000000000   2.598365000000000 
  2.387227893045265   0.000000000000000   5.972865000000000 
