Generated by cif2cell 1.2.10. Al Sb :  Owen, E A and Preston, G D, Proceedings of the Physical Society, London 36, 341-348 (1924).
 1.0
  0.000000000000000   3.063000000000000   3.063000000000000
  3.063000000000000   0.000000000000000   3.063000000000000
  3.063000000000000   3.063000000000000   0.000000000000000
  Sb  Al
   1   1
Cartesian
  0.000000000000000   0.000000000000000   0.000000000000000 
  4.594500000000000   4.594500000000000   4.594500000000000 
