Generated by cif2cell 1.2.10.  :  Sowa, Heidrun and Ahsbahs, Hans, Journal of Applied Crystallography 39, 169-175 (2006).
 1.0
  2.766951165091281  -1.597500000000000   0.000000000000000
  0.000000000000000   3.195000000000000   0.000000000000000
  0.000000000000000   0.000000000000000   5.102700000000000
  Zn   O
   2   2
Cartesian
  0.922317055030427   1.597500000000000   0.000000000000000 
  1.844634110060854   0.000000000000000   2.551350000000000 
  0.922317055030427   1.597500000000000   1.945659510000000 
  1.844634110060854   0.000000000000000   4.497009510000000 
