Generated by cif2cell 1.2.10. In As :  Iandelli, A, Gazzetta Chimica Italiana 70, 58-62 (1940).
 1.0
  0.000000000000000   3.018000000000000   3.018000000000000
  3.018000000000000   0.000000000000000   3.018000000000000
  3.018000000000000   3.018000000000000   0.000000000000000
  As  In
   1   1
Cartesian
  1.509000000000000   1.509000000000000   1.509000000000000 
  0.000000000000000   0.000000000000000   0.000000000000000 
