Generated by cif2cell 1.2.10.  :  Wyckoff, R. W. G., Crystal Structures 1, 85-237 (1963).
 1.0
  3.446781107062066  -1.990000000000000   0.000000000000000
  0.000000000000000   3.980000000000000   0.000000000000000
  0.000000000000000   0.000000000000000   6.530000000000000
  Zn  Se
   2   2
Cartesian
  1.148927035687355   1.990000000000000   0.000000000000000 
  2.297854071374710   0.000000000000000   3.265000000000000 
  1.148927035687355   1.990000000000000   2.514050000000000 
  2.297854071374710   0.000000000000000   5.779050000000001 
