Generated by cif2cell 1.2.10.  :  Roth, W.L., Acta Crystallographica (1,1948-23,1967) 9, 277-280 (1956).
 1.0
  3.311000000000000   0.000000000000000   0.000000000000000
  0.000000000000000   5.526000000000000   0.000000000000000
  1.655500000000000   2.763000000000000   1.763000000000000
  Hg   O
   1   1
Cartesian
  0.000000000000000   0.000000000000000   0.000000000000000 
  3.311000000000000   2.763000000000000   0.599420000000000 
