Generated by cif2cell 1.2.10.  :  Wyckoff, R. W. G., Crystal Structures 1, 85-237 (1963).
 1.0
  0.000000000000000   2.388500000000000   2.388500000000000
  2.388500000000000   0.000000000000000   2.388500000000000
  2.388500000000000   2.388500000000000   0.000000000000000
   B  As
   1   1
Cartesian
  0.000000000000000   0.000000000000000   0.000000000000000 
  1.194250000000000   1.194250000000000   1.194250000000000 
