Generated by cif2cell 1.2.10.  :  Yu Shucheng and Spain, I.L., Journal of Applied Physics 49, 4741-4745 (1978).
 1.0
  5.618000000000000   0.000000000000000   0.000000000000000
  0.000000000000000   2.919000000000000   0.000000000000000
  0.000000000000000   0.000000000000000   3.066000000000000
  Sb  In
   1   1
Cartesian
  2.809000000000000   0.000000000000000   0.766500000000000 
  0.000000000000000   0.000000000000000   0.000000000000000 
