Generated by cif2cell 1.2.10.  :  Wyckoff, R. W. G., Crystal Structures 1, 85-237 (1963).
 1.0
  3.104701072567212  -1.792500000000000   0.000000000000000
  0.000000000000000   3.585000000000000   0.000000000000000
  0.000000000000000   0.000000000000000  15.500000000000002
  Ga   S
   4   4
Cartesian
  1.034900357522404   1.792500000000000   2.635000000000001 
  2.069800715044808   0.000000000000000  10.385000000000002 
  1.034900357522404   1.792500000000000   5.115000000000000 
  2.069800715044808   0.000000000000000  12.865000000000000 
  1.034900357522404   1.792500000000000   9.300000000000001 
  2.069800715044808   0.000000000000000   1.550000000000002 
  1.034900357522404   1.792500000000000  13.950000000000001 
  2.069800715044808   0.000000000000000   6.200000000000001 
