Generated by cif2cell 1.2.10. Hg Se :  de Jong, W F, Zeitschrift fuer Kristallographie, Kristallgeometrie, Kristallphysik,Kristallchemie (-144,1977) 63, 466-472 (1926).
 1.0
  0.000000000000000   3.020000000000000   3.020000000000000
  3.020000000000000   0.000000000000000   3.020000000000000
  3.020000000000000   3.020000000000000   0.000000000000000
  Se  Hg
   1   1
Cartesian
  1.510000000000000   1.510000000000000   1.510000000000000 
  0.000000000000000   0.000000000000000   0.000000000000000 
