Generated by cif2cell 1.2.10. Al P :  Passerini, L, Gazzetta Chimica Italiana 58, 655-664 (1928).
 1.0
  0.000000000000000   2.710000000000000   2.710000000000000
  2.710000000000000   0.000000000000000   2.710000000000000
  2.710000000000000   2.710000000000000   0.000000000000000
  Al   P
   1   1
Cartesian
  0.000000000000000   0.000000000000000   0.000000000000000 
  1.355000000000000   1.355000000000000   1.355000000000000 
