Generated by cif2cell 1.2.10.  :  Miwa, K. and Fukumoto, A., Physical Review, Serie 3. B - Condensed Matter (18,1978-) 48, 7897-7902 (1993).
 1.0
  2.724515920305844  -1.573000000000000   0.000000000000000
  0.000000000000000   3.146000000000000   0.000000000000000
  0.000000000000000   0.000000000000000   5.125000000000000
  Ga   N
   2   2
Cartesian
  1.816343946870562   0.000000000000000   0.000000000000000 
  0.908171973435281   1.573000000000000   2.562500000000000 
  1.816343946870562   0.000000000000000   1.932125000000000 
  0.908171973435281   1.573000000000000   4.494625000000000 
