Generated by cif2cell 1.2.10.  :  Yeh, C. et al., Physical Review B 46, 10086-10097 (1992).
 1.0
  3.270977950093825  -1.888500000000000   0.000000000000000
  0.000000000000000   3.777000000000000   0.000000000000000
  0.000000000000000   0.000000000000000   6.188000000000000
  Zn   S
   2   2
Cartesian
  1.090325983364608   1.888500000000000   0.000000000000000 
  2.180651966729216   0.000000000000000   3.094000000000000 
  1.090325983364608   1.888500000000000   2.320500000000000 
  2.180651966729216   0.000000000000000   5.414499999999999 
