Generated by cif2cell 1.2.10.  :  Xu, Y. N. and Ching, W. Y., Physical Review B 48, 4335-4351 (1993).
 1.0
  2.196240423997336  -1.268000000000000   0.000000000000000
  0.000000000000000   2.536000000000000   0.000000000000000
  0.000000000000000   0.000000000000000   4.199000000000000
   B   N
   2   2
Cartesian
  1.464160282664891   0.000000000000000   0.000000000000000 
  0.732080141332445   1.268000000000000   2.099500000000000 
  1.464160282664891   0.000000000000000   1.574625000000000 
  0.732080141332445   1.268000000000000   3.674125000000000 
