Generated by cif2cell 1.2.10. In N :  Juza, R and Hahn, H, Zeitschrift fuer Anorganische und Allgemeine Chemie 239, 282-287 (1938).
 1.0
  3.059667751570422  -1.766500000000000   0.000000000000000
  0.000000000000000   3.533000000000000   0.000000000000000
  0.000000000000000   0.000000000000000   5.693000000000000
  In   N
   2   2
Cartesian
  1.019889250523474   1.766500000000000   0.000000000000000 
  2.039778501046948   0.000000000000000   2.846500000000000 
  1.019889250523474   1.766500000000000   2.134875000000000 
  2.039778501046948   0.000000000000000   4.981375000000000 
