Generated by cif2cell 1.2.10.  :  Chattopadhyay, T.K. et al., Journal of Physics and Chemistry of Solids 46, 351-356 (1985).
 1.0
  3.610000000000000   0.000000000000000   0.000000000000000
  0.000000000000000   3.610000000000000   0.000000000000000
  0.000000000000000   0.000000000000000   3.610000000000000
  Te  In
   1   1
Cartesian
  1.805000000000000   1.805000000000000   1.805000000000000 
  0.000000000000000   0.000000000000000   0.000000000000000 
