Generated by cif2cell 1.2.10.  :  Wyckoff, R. W. G., Crystal Structures 1, 85-237 (1963).
 1.0
  0.000000000000000   2.269000000000000   2.269000000000000
  2.269000000000000   0.000000000000000   2.269000000000000
  2.269000000000000   2.269000000000000   0.000000000000000
   P   B
   1   1
Cartesian
  1.134500000000000   1.134500000000000   1.134500000000000 
  0.000000000000000   0.000000000000000   0.000000000000000 
